language ESSENCE' 1.0
$ loaded file: carseqdata/csplib-instance-37
letting numcars=200
letting numclasses=22
letting numoptions=5
letting optMax=[1, 2, 1, 2, 1]
letting windowSize=[2, 3, 3, 5, 5]
letting numberPerClass=[3, 2, 34, 6, 16, 43, 5, 13, 1, 2, 4, 13, 4, 1, 2, 17, 16, 1, 2, 2, 5, 8]
letting optionsRequired=[[1, 1, 0, 1, 0], [0, 0, 0, 1, 1], [0, 0, 0, 1, 0], [1, 0, 0, 1, 0], [1, 1, 0, 0, 0], [0, 1, 0, 0, 0], [0, 0, 1, 1, 0], [0, 0, 0, 0, 1], [1, 0, 1, 0, 1], [1, 1, 1, 0, 0], [1, 0, 1, 0, 0], [0, 1, 0, 1, 0], [1, 0, 0, 0, 1], [1, 0, 1, 1, 0], [0, 1, 1, 0, 1], [1, 0, 0, 0, 0], [0, 0, 1, 0, 0], [1, 1, 1, 1, 0], [1, 1, 1, 0, 1], [0, 1, 1, 1, 0], [0, 1, 1, 0, 0], [0, 1, 0, 0, 1]]
